100 8
622 478
870 728
103 359
721 608
573 763
620 602
37 785
161 798
683 618
50 236
743 88
711 339
666 433
340 787
598 732
596 377
366 543
47 780
739 234
391 846
454 558
441 313
734 235
572 460
827 307
779 751
317 759
531 803
324 376
60 266
84 310
668 627
763 311
804 412
387 939
618 350
93 357
680 696
828 579
387 700
88 365
244 828
197 242
924 729
282 847
274 774
652 527
389 255
784 807
473 571
667 501
478 806
190 295
833 876
536 458
734 450
243 333
638 374
423 840
575 361
609 616
864 222
286 409
451 853
34 659
134 373
377 740
101 734
633 642
83 746
767 113
320 890
191 696
206 679
49 830
415 692
91 406
521 324
228 846
521 691
454 437
102 220
965 898
613 322
198 823
131 250
816 165
120 263
547 455
746 504
862 146
170 800
714 173
963 727
31 808
728 85
108 458
771 582
385 679
226 501
